! pbe0-dh aug-cc-PVTZ RIJCOSX Opt
%basis
 AuxJ "aug-cc-PVTZ/JK"
 AuxC "aug-cc-PVTZ/C"
 newGTO H "cc-PVTZ" end
 newAuxJGTO H "cc-PVTZ/JK" end
 newAuxCGTO H "cc-PVTZ/C" end
end
%maxcore 1000
%pal nprocs 4 end
%cpcm
 SMD true
 SMDsolvent "n-hexane"
end

*xyz 0 1
C        -7.40694147933198    2.50228450784091    0.71729881384498
C        -6.22897591094843    1.92976514287644    0.49805623704190
C        -5.92866604937385    0.96851592744610   -0.55491850695110
C        -4.70059025108629    0.46456344321100   -0.66986515364438
H        -3.90598583704866    0.74734929499872    0.00023862944122
H        -4.44573290897266   -0.24752328118160   -1.43640823707398
H        -7.54713513897528    3.20626415298139    1.52010802192155
H        -8.27411318217921    2.29812590060090    0.11301947130289
H        -5.39280346822848    2.17644664208690    1.14066793891993
C        -7.03064380034812    0.57101515467356   -1.49082091290501
H        -7.85388844501431    0.12259603883364   -0.93660215104503
H        -6.67115558046250   -0.14750682516756   -2.22266336680725
H        -7.41266794803022    1.44430390079961   -2.01751078404572
*


$new_job
! pbe0-dh aug-cc-PVTZ RIJCOSX
%basis
 AuxJ "aug-cc-PVTZ/JK"
 AuxC "aug-cc-PVTZ/C"
 newGTO H "cc-PVTZ" end
 newAuxJGTO H "cc-PVTZ/JK" end
 newAuxCGTO H "cc-PVTZ/C" end
end
%maxcore 1000
%pal nprocs 4 end
%cpcm
 SMD true
 SMDsolvent "n-hexane"
end
%tddft
 nroots 10
 maxdim 5
end
* xyzfile 0 1
