! m062x defgrid3 aug-cc-PVTZ RIJCOSX Opt
%basis
 AuxJ "aug-cc-PVTZ/JK"
 AuxC "aug-cc-PVTZ/C"
 newGTO H "cc-PVTZ" end
 newAuxJGTO H "cc-PVTZ/JK" end
 newAuxCGTO H "cc-PVTZ/C" end
end
%maxcore 1000
%pal nprocs 4 end
%cpcm
 SMD true
 SMDsolvent "n-heptane"
end

*xyz 0 1
C        -2.72349320784298    2.79921714757551   -0.00000000000680
C        -3.85640164781525    1.85198661561537    0.00000000000439
C        -3.67757080776528    0.52951974518664    0.00000000000264
C        -2.33377354071880   -0.08279897920395    0.00000000000196
C        -1.37969599945952    2.18689734704979    0.00000000000328
C        -1.20086503683256    0.86443063542480    0.00000000000411
H        -4.84180235031280    2.29734275563469    0.00000000000425
H        -4.50929541940980   -0.16155924586461    0.00000000000186
H        -0.54797015635249    2.87797541443033    0.00000000000222
H        -0.21546569811830    0.41907153175065    0.00000000000368
O        -2.17107237382666   -1.28599602272201   -0.00000000001283
O        -2.88619376154557    4.00241305512279   -0.00000000000877
*


$new_job
! m062x defgrid3 aug-cc-PVTZ RIJCOSX
%basis
 AuxJ "aug-cc-PVTZ/JK"
 AuxC "aug-cc-PVTZ/C"
 newGTO H "cc-PVTZ" end
 newAuxJGTO H "cc-PVTZ/JK" end
 newAuxCGTO H "cc-PVTZ/C" end
end
%maxcore 1000
%pal nprocs 4 end
%cpcm
 SMD true
 SMDsolvent "n-heptane"
end
%tddft
 nroots 10
 maxdim 5
end
* xyzfile 0 1
