! pbe0 aug-cc-PVTZ RIJCOSX Opt
%maxcore 1000
%basis
 AuxJ "aug-cc-PVTZ/JK"
 AuxC "aug-cc-PVTZ/C"
 newGTO H "cc-PVTZ" end
 newAuxJGTO H "cc-PVTZ/JK" end
 newAuxCGTO H "cc-PVTZ/C" end
end
%pal nprocs 4 end
%cpcm
 SMD true
 SMDsolvent "n-hexane"
end

*xyz 0 1
C        -2.25643011451565    2.37356929764877    0.15726116892193
C        -2.54425962838920    0.93851151877908   -0.17423872535766
C        -1.00983439092389    2.83965382142568    0.14110887380937
C         0.10232141052834    1.95510385601870   -0.15666887290225
C        -1.38459010002503    0.03096618549236    0.23729811979669
H        -2.70344469127216    0.86500968273686   -1.25756934808684
H        -3.46501480725563    0.61116481188773    0.31124057967581
C        -0.06229262227800    0.63450027972730   -0.13627835172801
H        -1.49926895859688   -0.95280399874870   -0.22101104743428
H        -1.39746118209592   -0.11311127111825    1.32533088732128
H         0.75874440924667   -0.04167832472051   -0.32428571181118
H         1.05941234129246    2.40107860784663   -0.38357384224997
H        -3.10064622393205    3.02038559452080    0.34630579330031
H        -0.79343544178305    3.87934993850359    0.33828047674482
*


$new_job
! pbe0 aug-cc-PVTZ RIJCOSX
%basis
 AuxJ "aug-cc-PVTZ/JK"
 AuxC "aug-cc-PVTZ/C"
 newGTO H "cc-PVTZ" end
 newAuxJGTO H "cc-PVTZ/JK" end
 newAuxCGTO H "cc-PVTZ/C" end
end
%maxcore 1000
%pal nprocs 4 end
%cpcm
 SMD true
 SMDsolvent "n-hexane"
end
%tddft
 nroots 10
 maxdim 5
end
* xyzfile 0 1
